40
1 0 3
2 0 6
3 0 8
3 2 7
4 1 1
4 2 10
4 3 4
5 2 8
5 3 4
6 0 5
6 2 10
6 3 9
6 4 8
6 5 7
7 0 7
7 1 4
7 3 8
7 5 2
7 6 1
8 0 9
8 2 2
8 3 3
8 5 4
8 7 7
9 0 5
9 4 6
9 5 10
10 1 10
10 2 9
10 3 10
10 6 6
10 8 9
11 0 5
11 1 6
11 2 3
11 5 5
11 8 7
12 0 9
12 1 6
12 2 7
12 6 10
12 8 3
12 10 1
12 11 3
13 0 3
13 1 10
13 3 2
13 10 2
13 11 5
14 0 10
14 6 7
14 7 1
14 8 7
14 9 5
14 11 4
15 3 10
15 4 10
15 7 10
15 10 2
15 12 6
15 13 3
15 14 3
16 0 10
16 3 6
16 5 6
16 8 10
16 11 6
16 12 1
16 15 6
17 0 2
17 1 8
17 4 1
17 6 1
17 9 2
17 10 6
17 11 4
17 12 9
18 1 5
18 2 9
18 4 8
18 5 6
18 7 6
18 9 9
18 11 7
18 14 2
18 15 3
18 16 2
18 17 9
19 1 2
19 3 4
19 7 2
19 12 4
19 14 3
19 15 6
19 16 2
19 17 6
20 3 7
20 4 7
20 5 7
20 6 6
20 7 5
20 8 4
20 9 10
20 11 9
20 12 4
20 14 2
20 17 10
21 2 4
21 4 1
21 5 5
21 7 10
21 8 3
21 9 2
21 12 3
21 13 3
21 14 1
21 15 2
21 16 10
21 17 5
21 19 8
21 20 7
22 1 8
22 2 9
22 6 6
22 7 4
22 8 5
22 11 7
22 13 4
22 14 1
22 16 3
22 21 1
23 0 1
23 2 9
23 9 4
23 10 3
23 14 9
23 19 6
23 21 2
23 22 5
24 1 8
24 4 8
24 7 7
24 9 3
24 10 2
24 11 9
24 12 1
24 16 3
24 17 5
24 20 2
24 21 8
24 22 5
25 1 1
25 3 5
25 5 7
25 6 1
25 13 2
25 14 1
25 16 5
25 18 9
25 19 6
25 21 9
25 24 5
26 0 7
26 2 9
26 4 10
26 5 1
26 8 6
26 10 5
26 11 7
26 12 8
26 15 1
26 19 2
26 20 3
26 21 2
27 1 4
27 4 10
27 5 8
27 9 6
27 11 8
27 12 7
27 13 5
27 16 6
27 18 4
27 19 9
27 20 1
27 21 2
27 22 2
27 23 9
27 24 1
27 25 8
27 26 5
28 0 10
28 3 3
28 4 2
28 5 3
28 8 10
28 12 2
28 13 10
28 14 8
28 18 3
28 22 10
28 23 10
29 0 1
29 1 1
29 2 8
29 3 1
29 4 1
29 5 7
29 6 2
29 7 5
29 8 1
29 10 4
29 11 1
29 18 8
29 19 5
29 21 5
29 23 4
29 25 3
30 3 10
30 4 5
30 7 9
30 9 7
30 10 10
30 12 7
30 18 6
30 19 3
30 20 3
30 22 3
30 24 5
30 26 4
30 27 8
30 28 7
31 0 3
31 1 6
31 2 6
31 7 2
31 8 8
31 11 10
31 13 6
31 14 8
31 17 7
31 18 1
31 20 5
31 23 9
31 24 9
31 25 10
31 28 1
31 29 2
32 0 6
32 4 4
32 5 3
32 6 1
32 11 9
32 16 9
32 17 3
32 20 6
32 23 2
32 26 5
32 31 6
33 2 10
33 4 4
33 6 8
33 8 10
33 9 4
33 10 10
33 11 3
33 12 6
33 14 3
33 18 8
33 22 6
33 25 7
33 27 7
33 29 5
33 32 2
34 0 3
34 3 2
34 4 8
34 6 10
34 8 9
34 9 3
34 12 7
34 13 2
34 17 3
34 18 5
34 19 8
34 20 10
34 23 3
34 24 4
34 25 10
34 26 1
34 27 3
34 29 6
34 30 10
34 31 4
34 32 9
35 1 8
35 4 4
35 5 10
35 7 6
35 10 2
35 11 8
35 12 1
35 13 6
35 14 6
35 15 10
35 17 8
35 19 7
35 29 5
35 31 7
35 32 2
35 33 5
36 1 10
36 3 1
36 4 8
36 12 2
36 17 10
36 21 6
36 22 4
36 25 5
36 26 8
36 27 6
36 28 7
36 29 7
36 31 6
36 33 4
36 34 6
36 35 7
37 1 10
37 2 10
37 4 1
37 5 6
37 6 2
37 7 3
37 9 8
37 10 1
37 11 4
37 15 5
37 16 4
37 18 8
37 19 10
37 23 1
37 24 8
37 27 4
37 29 4
37 30 7
37 31 5
37 32 7
37 33 8
37 34 9
37 36 4
38 0 3
38 3 9
38 10 10
38 11 3
38 12 8
38 13 9
38 15 5
38 19 2
38 23 9
38 25 10
38 28 9
38 34 7
38 36 8
39 0 1
39 1 8
39 3 5
39 11 1
39 12 4
39 13 6
39 14 1
39 17 6
39 21 4
39 23 7
39 24 8
39 25 1
39 27 6
39 30 7
39 31 4
39 34 4
39 35 3
